146
100000
32586
29858
7336
18311
6807
31553
1781
22962
20832
19596
19277
18512
15360
11520
6091
2537
5408
11937
10154
37893
29386
3980
35800
1610
29235
48493
7164
1627
33527
9169
18420
39298
4494
11389
49794
36147
4686
32719
33448
44825
18190
43717
34827
19
42989
25365
33433
40279
9562
17706
12739
2279
48754
17466
3607
237
31856
21471
49735
48697
25543
18226
46184
29516
8069
8686
2273
4939
14254
3642
29578
10800
21255
3747
18990
32055
32286
8733
8203
49983
16061
11816
1483
39326
14807
10218
17178
2257
45534
5069
1795
19430
4014
46505
9866
18151
30056
45771
46882
31136
39329
4541
11602
36496
14610
2286
10589
27233
7529
7250
6799
45758
35475
4896
3056
30530
530
24260
3556
6513
17990
10403
36692
47950
15194
41769
19623
6900
6679
4647
43317
3887
30341
32967
21074
9278
3738
30703
20857
37374
33776
12938
11221
5191
40749
29137
